pr/lpsolve-precompiler/example/first_seq.out

Value of objective function: 14400.00000000

Actual values of the variables:
T                           14400
T1                          14400
T2                          14400
T3                          14400
T4                          14400
d12                             0
d21                             0
d23                          7200
d24                          2400
Tzk1                            0
Trk2                            0
Tzk3                         9600
x34                             1
Trk3                         7200
Tzk2                         7200
Tzk                          9600
